(set-logic QF_S)
(declare-fun var0 () String)
(assert (str.in.re var0 (re.++ (re.* (re.union (str.to.re "000") (str.to.re "11"))) (re.++ (re.+ (re.union (str.to.re "222") (str.to.re "33"))) (re.++ (re.union (re.union (str.to.re "4") (str.to.re "55")) (re.union (str.to.re "666") (str.to.re "7"))) (re.++ (re.* (re.+ (str.to.re "88"))) (re.++ (re.* (re.union (str.to.re "999") (str.to.re "aa"))) (re.++ (re.+ (re.* (str.to.re "bbb"))) (re.++ (re.+ (re.* (str.to.re "cc"))) (re.++ (re.union (re.union (str.to.re "dd") (str.to.re "ee")) (re.union (str.to.re "f") (str.to.re "gg"))) (re.++ (re.union (re.union (str.to.re "h") (str.to.re "ii")) (re.union (str.to.re "jjj") (str.to.re "kk"))) (re.* (re.union (str.to.re "lll") (str.to.re "mm"))))))))))))))
(assert (str.in.re var0 (re.++ (re.+ (re.* (str.to.re "0"))) (re.++ (re.+ (re.union (str.to.re "111") (str.to.re "222"))) (re.++ (re.+ (re.* (str.to.re "333"))) (re.++ (re.union (re.union (str.to.re "44") (str.to.re "55")) (re.union (str.to.re "66") (str.to.re "77"))) (re.++ (re.+ (re.union (str.to.re "88") (str.to.re "99"))) (re.++ (re.union (re.* (str.to.re "a")) (re.* (str.to.re "bbb"))) (re.++ (re.+ (re.* (str.to.re "ccc"))) (re.++ (re.+ (re.union (str.to.re "d") (str.to.re "eee"))) (re.++ (re.* (re.union (str.to.re "f") (str.to.re "ggg"))) (re.+ (re.union (str.to.re "hh") (str.to.re "i"))))))))))))))
(assert (str.in.re var0 (re.++ (re.+ (re.union (str.to.re "00") (str.to.re "1"))) (re.++ (re.union (re.* (str.to.re "222")) (re.* (str.to.re "333"))) (re.++ (re.* (re.+ (str.to.re "44"))) (re.++ (re.* (re.+ (str.to.re "5"))) (re.++ (re.union (re.+ (str.to.re "6")) (re.+ (str.to.re "77"))) (re.++ (re.* (re.+ (str.to.re "88"))) (re.++ (re.+ (re.union (str.to.re "9") (str.to.re "aa"))) (re.++ (re.* (re.* (str.to.re "b"))) (re.++ (re.* (re.* (str.to.re "ccc"))) (re.union (re.* (str.to.re "d")) (re.* (str.to.re "e"))))))))))))))
(assert (str.in.re var0 (re.++ (re.* (re.* (str.to.re "00"))) (re.++ (re.union (re.+ (str.to.re "11")) (re.+ (str.to.re "222"))) (re.++ (re.* (re.* (str.to.re "333"))) (re.++ (re.union (re.union (str.to.re "4") (str.to.re "555")) (re.union (str.to.re "66") (str.to.re "777"))) (re.++ (re.union (re.+ (str.to.re "88")) (re.+ (str.to.re "99"))) (re.++ (re.union (re.* (str.to.re "aa")) (re.* (str.to.re "bbb"))) (re.++ (re.+ (re.+ (str.to.re "c"))) (re.++ (re.+ (re.* (str.to.re "ddd"))) (re.++ (re.* (re.+ (str.to.re "e"))) (re.* (re.+ (str.to.re "fff"))))))))))))))
(assert (str.in.re var0 (re.++ (re.+ (re.+ (str.to.re "00"))) (re.++ (re.union (re.+ (str.to.re "11")) (re.+ (str.to.re "2"))) (re.++ (re.+ (re.* (str.to.re "333"))) (re.++ (re.union (re.+ (str.to.re "444")) (re.+ (str.to.re "5"))) (re.++ (re.* (re.+ (str.to.re "66"))) (re.++ (re.* (re.union (str.to.re "77") (str.to.re "88"))) (re.++ (re.* (re.+ (str.to.re "999"))) (re.++ (re.union (re.* (str.to.re "aa")) (re.* (str.to.re "b"))) (re.++ (re.union (re.union (str.to.re "c") (str.to.re "ddd")) (re.union (str.to.re "e") (str.to.re "fff"))) (re.* (re.union (str.to.re "gg") (str.to.re "h"))))))))))))))
(assert (str.in.re var0 (re.++ (re.* (re.+ (str.to.re "00"))) (re.++ (re.+ (re.* (str.to.re "111"))) (re.++ (re.* (re.* (str.to.re "2"))) (re.++ (re.* (re.union (str.to.re "33") (str.to.re "4"))) (re.++ (re.* (re.union (str.to.re "55") (str.to.re "6"))) (re.++ (re.+ (re.* (str.to.re "777"))) (re.++ (re.* (re.union (str.to.re "88") (str.to.re "9"))) (re.++ (re.union (re.union (str.to.re "aaa") (str.to.re "b")) (re.union (str.to.re "cc") (str.to.re "ddd"))) (re.++ (re.union (re.* (str.to.re "e")) (re.* (str.to.re "f"))) (re.union (re.* (str.to.re "g")) (re.* (str.to.re "hh"))))))))))))))
(assert (str.in.re var0 (re.++ (re.+ (re.* (str.to.re "0"))) (re.++ (re.* (re.* (str.to.re "111"))) (re.++ (re.+ (re.* (str.to.re "222"))) (re.++ (re.* (re.* (str.to.re "3"))) (re.++ (re.union (re.* (str.to.re "44")) (re.* (str.to.re "5"))) (re.++ (re.union (re.* (str.to.re "66")) (re.* (str.to.re "777"))) (re.++ (re.union (re.union (str.to.re "8") (str.to.re "99")) (re.union (str.to.re "aa") (str.to.re "bbb"))) (re.++ (re.+ (re.union (str.to.re "cc") (str.to.re "ddd"))) (re.++ (re.* (re.* (str.to.re "ee"))) (re.+ (re.+ (str.to.re "fff"))))))))))))))
(assert (str.in.re var0 (re.++ (re.* (re.+ (str.to.re "000"))) (re.++ (re.* (re.* (str.to.re "111"))) (re.++ (re.+ (re.+ (str.to.re "222"))) (re.++ (re.+ (re.* (str.to.re "3"))) (re.++ (re.* (re.union (str.to.re "444") (str.to.re "55"))) (re.++ (re.union (re.+ (str.to.re "666")) (re.+ (str.to.re "7"))) (re.++ (re.+ (re.* (str.to.re "8"))) (re.++ (re.+ (re.union (str.to.re "99") (str.to.re "aa"))) (re.++ (re.union (re.+ (str.to.re "b")) (re.+ (str.to.re "cc"))) (re.* (re.* (str.to.re "dd"))))))))))))))
(assert (str.in.re var0 (re.++ (re.* (re.* (str.to.re "000"))) (re.++ (re.* (re.union (str.to.re "11") (str.to.re "22"))) (re.++ (re.+ (re.+ (str.to.re "333"))) (re.++ (re.union (re.union (str.to.re "444") (str.to.re "5")) (re.union (str.to.re "66") (str.to.re "777"))) (re.++ (re.+ (re.union (str.to.re "888") (str.to.re "99"))) (re.++ (re.* (re.union (str.to.re "a") (str.to.re "bbb"))) (re.++ (re.union (re.union (str.to.re "ccc") (str.to.re "dd")) (re.union (str.to.re "eee") (str.to.re "f"))) (re.++ (re.union (re.+ (str.to.re "ggg")) (re.+ (str.to.re "hh"))) (re.++ (re.* (re.* (str.to.re "i"))) (re.union (re.union (str.to.re "jjj") (str.to.re "kkk")) (re.union (str.to.re "lll") (str.to.re "m"))))))))))))))
(assert (str.in.re var0 (re.++ (re.+ (re.+ (str.to.re "00"))) (re.++ (re.union (re.union (str.to.re "111") (str.to.re "22")) (re.union (str.to.re "33") (str.to.re "444"))) (re.++ (re.union (re.+ (str.to.re "55")) (re.+ (str.to.re "6"))) (re.++ (re.* (re.+ (str.to.re "777"))) (re.++ (re.* (re.union (str.to.re "8") (str.to.re "9"))) (re.++ (re.* (re.* (str.to.re "aa"))) (re.++ (re.union (re.+ (str.to.re "bb")) (re.+ (str.to.re "ccc"))) (re.++ (re.* (re.+ (str.to.re "dd"))) (re.++ (re.union (re.union (str.to.re "eee") (str.to.re "fff")) (re.union (str.to.re "g") (str.to.re "h"))) (re.union (re.+ (str.to.re "ii")) (re.+ (str.to.re "jjj"))))))))))))))
(assert (str.in.re var0 (re.++ (re.+ (re.+ (str.to.re "000"))) (re.++ (re.* (re.union (str.to.re "11") (str.to.re "222"))) (re.++ (re.union (re.union (str.to.re "3") (str.to.re "444")) (re.union (str.to.re "55") (str.to.re "666"))) (re.++ (re.+ (re.* (str.to.re "77"))) (re.++ (re.union (re.* (str.to.re "88")) (re.* (str.to.re "99"))) (re.++ (re.union (re.* (str.to.re "aaa")) (re.* (str.to.re "bbb"))) (re.++ (re.* (re.* (str.to.re "ccc"))) (re.++ (re.+ (re.* (str.to.re "ddd"))) (re.++ (re.union (re.union (str.to.re "eee") (str.to.re "f")) (re.union (str.to.re "ggg") (str.to.re "h"))) (re.union (re.+ (str.to.re "iii")) (re.+ (str.to.re "jj"))))))))))))))
(assert (str.in.re var0 (re.++ (re.+ (re.* (str.to.re "000"))) (re.++ (re.+ (re.* (str.to.re "1"))) (re.++ (re.union (re.* (str.to.re "22")) (re.* (str.to.re "333"))) (re.++ (re.* (re.union (str.to.re "444") (str.to.re "55"))) (re.++ (re.* (re.* (str.to.re "66"))) (re.++ (re.+ (re.* (str.to.re "777"))) (re.++ (re.union (re.union (str.to.re "8") (str.to.re "9")) (re.union (str.to.re "aaa") (str.to.re "b"))) (re.++ (re.union (re.+ (str.to.re "ccc")) (re.+ (str.to.re "ddd"))) (re.++ (re.+ (re.* (str.to.re "ee"))) (re.* (re.* (str.to.re "ff"))))))))))))))
(assert (str.in.re var0 (re.++ (re.+ (re.* (str.to.re "0"))) (re.++ (re.+ (re.union (str.to.re "11") (str.to.re "22"))) (re.++ (re.union (re.* (str.to.re "3")) (re.* (str.to.re "444"))) (re.++ (re.* (re.union (str.to.re "555") (str.to.re "66"))) (re.++ (re.* (re.+ (str.to.re "7"))) (re.++ (re.* (re.union (str.to.re "888") (str.to.re "99"))) (re.++ (re.+ (re.* (str.to.re "a"))) (re.++ (re.* (re.union (str.to.re "bbb") (str.to.re "cc"))) (re.++ (re.* (re.+ (str.to.re "d"))) (re.union (re.* (str.to.re "eee")) (re.* (str.to.re "fff"))))))))))))))
(assert (str.in.re var0 (re.++ (re.union (re.* (str.to.re "00")) (re.* (str.to.re "1"))) (re.++ (re.* (re.+ (str.to.re "2"))) (re.++ (re.* (re.+ (str.to.re "3"))) (re.++ (re.union (re.union (str.to.re "44") (str.to.re "5")) (re.union (str.to.re "666") (str.to.re "777"))) (re.++ (re.+ (re.* (str.to.re "8"))) (re.++ (re.+ (re.* (str.to.re "99"))) (re.++ (re.union (re.+ (str.to.re "aaa")) (re.+ (str.to.re "bbb"))) (re.++ (re.* (re.* (str.to.re "c"))) (re.++ (re.* (re.+ (str.to.re "dd"))) (re.union (re.* (str.to.re "eee")) (re.* (str.to.re "f"))))))))))))))
(assert (str.in.re var0 (re.++ (re.+ (re.* (str.to.re "000"))) (re.++ (re.* (re.* (str.to.re "1"))) (re.++ (re.+ (re.* (str.to.re "22"))) (re.++ (re.* (re.+ (str.to.re "333"))) (re.++ (re.+ (re.union (str.to.re "44") (str.to.re "5"))) (re.++ (re.+ (re.union (str.to.re "666") (str.to.re "7"))) (re.++ (re.* (re.union (str.to.re "888") (str.to.re "99"))) (re.++ (re.+ (re.+ (str.to.re "a"))) (re.++ (re.* (re.* (str.to.re "b"))) (re.+ (re.* (str.to.re "ccc"))))))))))))))
(assert (str.in.re var0 (re.++ (re.* (re.+ (str.to.re "00"))) (re.++ (re.+ (re.+ (str.to.re "11"))) (re.++ (re.* (re.+ (str.to.re "2"))) (re.++ (re.* (re.union (str.to.re "333") (str.to.re "444"))) (re.++ (re.union (re.+ (str.to.re "55")) (re.+ (str.to.re "66"))) (re.++ (re.* (re.+ (str.to.re "777"))) (re.++ (re.* (re.+ (str.to.re "88"))) (re.++ (re.union (re.union (str.to.re "999") (str.to.re "aa")) (re.union (str.to.re "bb") (str.to.re "cc"))) (re.++ (re.+ (re.* (str.to.re "d"))) (re.* (re.* (str.to.re "ee"))))))))))))))
(assert (str.in.re var0 (re.++ (re.* (re.* (str.to.re "00"))) (re.++ (re.+ (re.* (str.to.re "111"))) (re.++ (re.* (re.* (str.to.re "222"))) (re.++ (re.union (re.* (str.to.re "333")) (re.* (str.to.re "4"))) (re.++ (re.union (re.* (str.to.re "5")) (re.* (str.to.re "666"))) (re.++ (re.union (re.+ (str.to.re "77")) (re.+ (str.to.re "88"))) (re.++ (re.* (re.union (str.to.re "99") (str.to.re "a"))) (re.++ (re.* (re.+ (str.to.re "bb"))) (re.++ (re.+ (re.+ (str.to.re "cc"))) (re.+ (re.union (str.to.re "dd") (str.to.re "e"))))))))))))))
(assert (str.in.re var0 (re.++ (re.* (re.union (str.to.re "00") (str.to.re "11"))) (re.++ (re.+ (re.+ (str.to.re "222"))) (re.++ (re.* (re.union (str.to.re "3") (str.to.re "44"))) (re.++ (re.union (re.+ (str.to.re "55")) (re.+ (str.to.re "66"))) (re.++ (re.union (re.union (str.to.re "7") (str.to.re "8")) (re.union (str.to.re "9") (str.to.re "aaa"))) (re.++ (re.* (re.* (str.to.re "b"))) (re.++ (re.* (re.+ (str.to.re "ccc"))) (re.++ (re.union (re.* (str.to.re "dd")) (re.* (str.to.re "eee"))) (re.++ (re.union (re.+ (str.to.re "fff")) (re.+ (str.to.re "ggg"))) (re.* (re.union (str.to.re "hh") (str.to.re "iii"))))))))))))))
(assert (str.in.re var0 (re.++ (re.union (re.+ (str.to.re "0")) (re.+ (str.to.re "111"))) (re.++ (re.+ (re.union (str.to.re "22") (str.to.re "3"))) (re.++ (re.* (re.* (str.to.re "444"))) (re.++ (re.* (re.+ (str.to.re "555"))) (re.++ (re.union (re.* (str.to.re "666")) (re.* (str.to.re "777"))) (re.++ (re.* (re.+ (str.to.re "8"))) (re.++ (re.+ (re.* (str.to.re "999"))) (re.++ (re.* (re.+ (str.to.re "a"))) (re.++ (re.* (re.+ (str.to.re "b"))) (re.union (re.+ (str.to.re "c")) (re.+ (str.to.re "ddd"))))))))))))))
(assert (str.in.re var0 (re.++ (re.union (re.* (str.to.re "000")) (re.* (str.to.re "11"))) (re.++ (re.+ (re.* (str.to.re "2"))) (re.++ (re.* (re.+ (str.to.re "333"))) (re.++ (re.* (re.union (str.to.re "444") (str.to.re "5"))) (re.++ (re.+ (re.union (str.to.re "6") (str.to.re "77"))) (re.++ (re.+ (re.+ (str.to.re "88"))) (re.++ (re.union (re.union (str.to.re "999") (str.to.re "a")) (re.union (str.to.re "bbb") (str.to.re "c"))) (re.++ (re.* (re.* (str.to.re "d"))) (re.++ (re.union (re.* (str.to.re "eee")) (re.* (str.to.re "fff"))) (re.union (re.+ (str.to.re "gg")) (re.+ (str.to.re "h"))))))))))))))
(assert (str.in.re var0 (re.++ (re.+ (re.+ (str.to.re "000"))) (re.++ (re.+ (re.* (str.to.re "111"))) (re.++ (re.union (re.+ (str.to.re "22")) (re.+ (str.to.re "333"))) (re.++ (re.* (re.union (str.to.re "44") (str.to.re "55"))) (re.++ (re.+ (re.+ (str.to.re "66"))) (re.++ (re.* (re.* (str.to.re "777"))) (re.++ (re.* (re.+ (str.to.re "88"))) (re.++ (re.* (re.union (str.to.re "9") (str.to.re "aaa"))) (re.++ (re.union (re.* (str.to.re "bbb")) (re.* (str.to.re "c"))) (re.+ (re.* (str.to.re "ddd"))))))))))))))
(assert (str.in.re var0 (re.++ (re.+ (re.+ (str.to.re "000"))) (re.++ (re.union (re.union (str.to.re "11") (str.to.re "2")) (re.union (str.to.re "33") (str.to.re "4"))) (re.++ (re.union (re.* (str.to.re "5")) (re.* (str.to.re "666"))) (re.++ (re.* (re.* (str.to.re "777"))) (re.++ (re.union (re.+ (str.to.re "888")) (re.+ (str.to.re "999"))) (re.++ (re.* (re.+ (str.to.re "a"))) (re.++ (re.* (re.+ (str.to.re "b"))) (re.++ (re.union (re.+ (str.to.re "c")) (re.+ (str.to.re "d"))) (re.++ (re.* (re.union (str.to.re "e") (str.to.re "fff"))) (re.+ (re.union (str.to.re "gg") (str.to.re "h"))))))))))))))
(assert (str.in.re var0 (re.++ (re.* (re.union (str.to.re "00") (str.to.re "11"))) (re.++ (re.+ (re.* (str.to.re "2"))) (re.++ (re.* (re.+ (str.to.re "33"))) (re.++ (re.* (re.+ (str.to.re "444"))) (re.++ (re.union (re.* (str.to.re "5")) (re.* (str.to.re "666"))) (re.++ (re.+ (re.* (str.to.re "777"))) (re.++ (re.union (re.* (str.to.re "88")) (re.* (str.to.re "999"))) (re.++ (re.+ (re.union (str.to.re "aa") (str.to.re "bbb"))) (re.++ (re.+ (re.+ (str.to.re "c"))) (re.* (re.+ (str.to.re "dd"))))))))))))))
(assert (str.in.re var0 (re.++ (re.* (re.union (str.to.re "0") (str.to.re "111"))) (re.++ (re.union (re.* (str.to.re "222")) (re.* (str.to.re "33"))) (re.++ (re.union (re.* (str.to.re "44")) (re.* (str.to.re "555"))) (re.++ (re.union (re.* (str.to.re "666")) (re.* (str.to.re "7"))) (re.++ (re.+ (re.* (str.to.re "888"))) (re.++ (re.+ (re.+ (str.to.re "9"))) (re.++ (re.union (re.union (str.to.re "aa") (str.to.re "b")) (re.union (str.to.re "cc") (str.to.re "d"))) (re.++ (re.union (re.+ (str.to.re "e")) (re.+ (str.to.re "fff"))) (re.++ (re.+ (re.* (str.to.re "g"))) (re.+ (re.union (str.to.re "h") (str.to.re "iii"))))))))))))))
(assert (str.in.re var0 (re.++ (re.* (re.+ (str.to.re "00"))) (re.++ (re.union (re.* (str.to.re "1")) (re.* (str.to.re "222"))) (re.++ (re.* (re.union (str.to.re "33") (str.to.re "444"))) (re.++ (re.+ (re.* (str.to.re "5"))) (re.++ (re.+ (re.* (str.to.re "66"))) (re.++ (re.+ (re.union (str.to.re "7") (str.to.re "8"))) (re.++ (re.+ (re.* (str.to.re "9"))) (re.++ (re.* (re.* (str.to.re "aa"))) (re.++ (re.union (re.+ (str.to.re "bb")) (re.+ (str.to.re "cc"))) (re.+ (re.union (str.to.re "ddd") (str.to.re "ee"))))))))))))))
(assert (str.in.re var0 (re.++ (re.+ (re.* (str.to.re "00"))) (re.++ (re.* (re.* (str.to.re "11"))) (re.++ (re.union (re.union (str.to.re "2") (str.to.re "333")) (re.union (str.to.re "44") (str.to.re "555"))) (re.++ (re.* (re.* (str.to.re "6"))) (re.++ (re.* (re.union (str.to.re "777") (str.to.re "8"))) (re.++ (re.* (re.union (str.to.re "9") (str.to.re "aaa"))) (re.++ (re.+ (re.* (str.to.re "bb"))) (re.++ (re.union (re.union (str.to.re "c") (str.to.re "dd")) (re.union (str.to.re "ee") (str.to.re "fff"))) (re.++ (re.* (re.* (str.to.re "ggg"))) (re.* (re.* (str.to.re "hh"))))))))))))))
(assert (str.in.re var0 (re.++ (re.* (re.+ (str.to.re "00"))) (re.++ (re.* (re.union (str.to.re "1") (str.to.re "22"))) (re.++ (re.* (re.* (str.to.re "333"))) (re.++ (re.union (re.union (str.to.re "4") (str.to.re "555")) (re.union (str.to.re "6") (str.to.re "77"))) (re.++ (re.+ (re.union (str.to.re "888") (str.to.re "99"))) (re.++ (re.union (re.union (str.to.re "a") (str.to.re "bb")) (re.union (str.to.re "ccc") (str.to.re "dd"))) (re.++ (re.union (re.union (str.to.re "e") (str.to.re "f")) (re.union (str.to.re "ggg") (str.to.re "hhh"))) (re.++ (re.+ (re.* (str.to.re "i"))) (re.++ (re.* (re.* (str.to.re "jj"))) (re.union (re.+ (str.to.re "k")) (re.+ (str.to.re "lll"))))))))))))))
(assert (str.in.re var0 (re.++ (re.union (re.* (str.to.re "0")) (re.* (str.to.re "111"))) (re.++ (re.+ (re.union (str.to.re "222") (str.to.re "33"))) (re.++ (re.union (re.* (str.to.re "4")) (re.* (str.to.re "5"))) (re.++ (re.+ (re.* (str.to.re "66"))) (re.++ (re.* (re.* (str.to.re "777"))) (re.++ (re.* (re.+ (str.to.re "8"))) (re.++ (re.+ (re.union (str.to.re "9") (str.to.re "aa"))) (re.++ (re.+ (re.+ (str.to.re "bbb"))) (re.++ (re.* (re.union (str.to.re "ccc") (str.to.re "dd"))) (re.+ (re.+ (str.to.re "e"))))))))))))))
(assert (str.in.re var0 (re.++ (re.* (re.+ (str.to.re "0"))) (re.++ (re.+ (re.+ (str.to.re "11"))) (re.++ (re.* (re.+ (str.to.re "2"))) (re.++ (re.+ (re.+ (str.to.re "3"))) (re.++ (re.union (re.+ (str.to.re "444")) (re.+ (str.to.re "55"))) (re.++ (re.union (re.union (str.to.re "666") (str.to.re "777")) (re.union (str.to.re "8") (str.to.re "999"))) (re.++ (re.union (re.+ (str.to.re "aaa")) (re.+ (str.to.re "b"))) (re.++ (re.* (re.* (str.to.re "ccc"))) (re.++ (re.union (re.+ (str.to.re "dd")) (re.+ (str.to.re "ee"))) (re.+ (re.union (str.to.re "ff") (str.to.re "ggg"))))))))))))))
(assert (str.in.re var0 (re.++ (re.+ (re.+ (str.to.re "0"))) (re.++ (re.union (re.* (str.to.re "1")) (re.* (str.to.re "222"))) (re.++ (re.union (re.+ (str.to.re "33")) (re.+ (str.to.re "444"))) (re.++ (re.union (re.+ (str.to.re "55")) (re.+ (str.to.re "66"))) (re.++ (re.* (re.* (str.to.re "77"))) (re.++ (re.+ (re.union (str.to.re "8") (str.to.re "999"))) (re.++ (re.+ (re.* (str.to.re "aaa"))) (re.++ (re.+ (re.+ (str.to.re "bb"))) (re.++ (re.+ (re.union (str.to.re "c") (str.to.re "d"))) (re.* (re.* (str.to.re "eee"))))))))))))))
(assert (str.in.re var0 (re.++ (re.union (re.union (str.to.re "000") (str.to.re "111")) (re.union (str.to.re "2") (str.to.re "33"))) (re.++ (re.* (re.* (str.to.re "444"))) (re.++ (re.+ (re.union (str.to.re "55") (str.to.re "666"))) (re.++ (re.+ (re.* (str.to.re "77"))) (re.++ (re.* (re.union (str.to.re "888") (str.to.re "999"))) (re.++ (re.+ (re.* (str.to.re "aa"))) (re.++ (re.union (re.union (str.to.re "bbb") (str.to.re "c")) (re.union (str.to.re "d") (str.to.re "ee"))) (re.++ (re.union (re.* (str.to.re "fff")) (re.* (str.to.re "g"))) (re.++ (re.union (re.+ (str.to.re "hh")) (re.+ (str.to.re "ii"))) (re.* (re.union (str.to.re "j") (str.to.re "kkk"))))))))))))))
(assert (str.in.re var0 (re.++ (re.+ (re.union (str.to.re "000") (str.to.re "11"))) (re.++ (re.+ (re.* (str.to.re "2"))) (re.++ (re.union (re.union (str.to.re "3") (str.to.re "4")) (re.union (str.to.re "5") (str.to.re "6"))) (re.++ (re.+ (re.union (str.to.re "777") (str.to.re "88"))) (re.++ (re.* (re.+ (str.to.re "99"))) (re.++ (re.union (re.union (str.to.re "a") (str.to.re "b")) (re.union (str.to.re "ccc") (str.to.re "dd"))) (re.++ (re.union (re.+ (str.to.re "ee")) (re.+ (str.to.re "f"))) (re.++ (re.+ (re.* (str.to.re "gg"))) (re.++ (re.union (re.* (str.to.re "h")) (re.* (str.to.re "i"))) (re.* (re.* (str.to.re "j"))))))))))))))
(assert (str.in.re var0 (re.++ (re.* (re.* (str.to.re "00"))) (re.++ (re.+ (re.union (str.to.re "111") (str.to.re "2"))) (re.++ (re.+ (re.union (str.to.re "333") (str.to.re "444"))) (re.++ (re.union (re.union (str.to.re "555") (str.to.re "66")) (re.union (str.to.re "7") (str.to.re "88"))) (re.++ (re.union (re.* (str.to.re "999")) (re.* (str.to.re "a"))) (re.++ (re.union (re.+ (str.to.re "bb")) (re.+ (str.to.re "cc"))) (re.++ (re.+ (re.+ (str.to.re "ddd"))) (re.++ (re.union (re.* (str.to.re "ee")) (re.* (str.to.re "f"))) (re.++ (re.union (re.* (str.to.re "gg")) (re.* (str.to.re "hhh"))) (re.* (re.* (str.to.re "ii"))))))))))))))
(assert (str.in.re var0 (re.++ (re.union (re.* (str.to.re "000")) (re.* (str.to.re "1"))) (re.++ (re.+ (re.* (str.to.re "22"))) (re.++ (re.union (re.union (str.to.re "3") (str.to.re "4")) (re.union (str.to.re "555") (str.to.re "666"))) (re.++ (re.* (re.union (str.to.re "77") (str.to.re "88"))) (re.++ (re.* (re.+ (str.to.re "999"))) (re.++ (re.union (re.+ (str.to.re "aa")) (re.+ (str.to.re "bbb"))) (re.++ (re.+ (re.+ (str.to.re "c"))) (re.++ (re.* (re.union (str.to.re "d") (str.to.re "eee"))) (re.++ (re.+ (re.* (str.to.re "f"))) (re.union (re.union (str.to.re "gg") (str.to.re "hh")) (re.union (str.to.re "iii") (str.to.re "j"))))))))))))))
(check-sat)